c
c Renamed file of f51m.cnf 
c Variables are renamed according to left2right.ord 
c
c Date: Thu Apr 29 14:49:21 PDT 2004 by (jinbo)
c Host: Linux solution 2.4.18-4smp #1 SMP Thu May 2 18:32:34 EDT 2002 i686 unknown
c
c Copyright (c) 2001 Fadi A. Aloul.
c
p cnf 108 511
46 -96 0
96 -46 0
-96 97 0
-97 96 0
9 -92 0
92 -9 0
-92 93 0
-93 92 0
22 -94 0
94 -22 0
-94 95 0
-95 94 0
75 -98 0
98 -75 0
-98 99 0
-99 98 0
83 -90 0
90 -83 0
-90 91 0
-91 90 0
87 -100 0
100 -87 0
-100 101 0
-101 100 0
102 -103 0
103 -102 0
-103 104 0
-104 103 0
106 -107 0
107 -106 0
-107 108 0
-108 107 0
39 -33 0
32 -33 0
38 -33 0
41 -33 0
33 -39 -32 -38 -41 0
-33 46 0
-39 -34 0
32 -34 0
-38 -34 0
41 -34 0
34 39 -32 38 -41 0
-34 46 0
-39 -27 0
-32 -27 0
38 -27 0
-41 -27 0
27 39 32 -38 41 0
-27 46 0
39 -28 0
-32 -28 0
-38 -28 0
-41 -28 0
28 -39 32 38 41 0
-28 46 0
39 -29 0
32 -29 0
38 -29 0
42 -29 0
29 -39 -32 -38 -42 0
-29 46 0
39 -37 0
38 -37 0
41 -37 0
42 -37 0
37 -39 -38 -41 -42 0
-37 46 0
39 -30 0
-32 -30 0
-38 -30 0
-42 -30 0
30 -39 32 38 42 0
-30 46 0
39 -40 0
-38 -40 0
-41 -40 0
-42 -40 0
40 -39 38 41 42 0
-40 46 0
39 -31 0
38 -31 0
41 -31 0
50 -31 0
31 -39 -38 -41 -50 0
-31 46 0
39 -49 0
-38 -49 0
-41 -49 0
-50 -49 0
49 -39 38 41 50 0
-49 46 0
-39 -47 0
-38 -47 0
41 -47 0
42 -47 0
50 -47 0
47 39 38 -41 -42 -50 0
-47 46 0
-39 -48 0
38 -48 0
-41 -48 0
-42 -48 0
-50 -48 0
48 39 -38 41 42 50 0
-48 46 0
-39 -44 0
-38 -44 0
41 -44 0
42 -44 0
55 -44 0
44 39 38 -41 -42 -55 0
-44 46 0
-39 -45 0
38 -45 0
-41 -45 0
-42 -45 0
-55 -45 0
45 39 -38 41 42 55 0
-45 46 0
39 -53 0
-32 -53 0
-38 -53 0
-50 -53 0
-55 -53 0
53 -39 32 38 50 55 0
-53 46 0
39 -60 0
38 -60 0
41 -60 0
55 -60 0
61 -60 0
60 -39 -38 -41 -55 -61 0
-60 46 0
-39 -43 0
38 -43 0
-41 -43 0
-42 -43 0
-61 -43 0
43 39 -38 41 42 61 0
-43 46 0
39 -59 0
-38 -59 0
-41 -59 0
-55 -59 0
-61 -59 0
59 -39 38 41 55 61 0
-59 46 0
-39 -51 0
32 -51 0
-38 -51 0
42 -51 0
50 -51 0
55 -51 0
51 39 -32 38 -42 -50 -55 0
-51 46 0
-39 -52 0
-32 -52 0
38 -52 0
-42 -52 0
-50 -52 0
-55 -52 0
52 39 32 -38 42 50 55 0
-52 46 0
-39 -35 0
32 -35 0
-38 -35 0
42 -35 0
50 -35 0
61 -35 0
35 39 -32 38 -42 -50 -61 0
-35 46 0
39 -56 0
32 -56 0
38 -56 0
50 -56 0
55 -56 0
61 -56 0
56 -39 -32 -38 -50 -55 -61 0
-56 46 0
-39 -36 0
-32 -36 0
38 -36 0
-42 -36 0
-50 -36 0
-61 -36 0
36 39 32 -38 42 50 61 0
-36 46 0
-46 33 34 27 28 29 37 30 40 31 49 47 48 44 45 53 60 43 59 51 52 35 56 36 0
32 -11 0
38 -11 0
41 -11 0
42 -11 0
11 -32 -38 -41 -42 0
-11 9 0
-32 -10 0
38 -10 0
-41 -10 0
42 -10 0
10 32 -38 41 -42 0
-10 9 0
-32 -8 0
-38 -8 0
41 -8 0
-42 -8 0
8 32 38 -41 42 0
-8 9 0
32 -1 0
-38 -1 0
-41 -1 0
-42 -1 0
1 -32 38 41 42 0
-1 9 0
32 -2 0
38 -2 0
41 -2 0
50 -2 0
2 -32 -38 -41 -50 0
-2 9 0
32 -4 0
41 -4 0
42 -4 0
50 -4 0
4 -32 -41 -42 -50 0
-4 9 0
32 -3 0
-38 -3 0
-41 -3 0
-50 -3 0
3 -32 38 41 50 0
-3 9 0
32 -5 0
41 -5 0
42 -5 0
55 -5 0
5 -32 -41 -42 -55 0
-5 9 0
32 -6 0
-41 -6 0
-42 -6 0
-55 -6 0
6 -32 41 42 55 0
-6 9 0
32 -7 0
-41 -7 0
-42 -7 0
-61 -7 0
7 -32 41 42 61 0
-7 9 0
-32 -54 0
-41 -54 0
42 -54 0
50 -54 0
55 -54 0
54 32 41 -42 -50 -55 0
-54 9 0
-32 -12 0
-38 -12 0
41 -12 0
-50 -12 0
-55 -12 0
12 32 38 -41 50 55 0
-12 9 0
-32 -13 0
41 -13 0
-42 -13 0
-50 -13 0
-55 -13 0
13 32 -41 42 50 55 0
-13 9 0
-32 -62 0
-41 -62 0
42 -62 0
50 -62 0
61 -62 0
62 32 41 -42 -50 -61 0
-62 9 0
-32 -14 0
41 -14 0
-42 -14 0
-50 -14 0
-61 -14 0
14 32 -41 42 50 61 0
-14 9 0
32 -15 0
-38 -15 0
-41 -15 0
-55 -15 0
-61 -15 0
15 -32 38 41 55 61 0
-15 9 0
-32 -57 0
38 -57 0
-41 -57 0
50 -57 0
55 -57 0
61 -57 0
57 32 -38 41 -50 -55 -61 0
-57 9 0
32 -58 0
38 -58 0
-42 -58 0
-50 -58 0
55 -58 0
61 -58 0
58 -32 -38 42 50 -55 -61 0
-58 9 0
-9 11 10 8 1 2 4 3 5 6 7 54 12 13 62 14 15 57 58 0
38 -23 0
41 -23 0
42 -23 0
50 -23 0
23 -38 -41 -42 -50 0
-23 22 0
-38 -24 0
41 -24 0
-42 -24 0
50 -24 0
24 38 -41 42 -50 0
-24 22 0
-38 -20 0
-41 -20 0
42 -20 0
-50 -20 0
20 38 41 -42 50 0
-20 22 0
38 -21 0
-41 -21 0
-42 -21 0
-50 -21 0
21 -38 41 42 50 0
-21 22 0
38 -16 0
41 -16 0
42 -16 0
55 -16 0
16 -38 -41 -42 -55 0
-16 22 0
38 -17 0
42 -17 0
50 -17 0
55 -17 0
17 -38 -42 -50 -55 0
-17 22 0
-38 -18 0
42 -18 0
-50 -18 0
-55 -18 0
18 38 -42 50 55 0
-18 22 0
38 -19 0
-42 -19 0
-50 -19 0
-55 -19 0
19 -38 42 50 55 0
-19 22 0
38 -65 0
-41 -65 0
-42 -65 0
-61 -65 0
65 -38 41 42 61 0
-65 22 0
38 -66 0
-42 -66 0
-50 -66 0
-61 -66 0
66 -38 42 50 61 0
-66 22 0
-38 -25 0
41 -25 0
-42 -25 0
55 -25 0
61 -25 0
25 38 -41 42 -55 -61 0
-25 22 0
-38 -26 0
-42 -26 0
50 -26 0
55 -26 0
61 -26 0
26 38 42 -50 -55 -61 0
-26 22 0
38 -63 0
-41 -63 0
50 -63 0
-55 -63 0
61 -63 0
63 -38 41 -50 55 -61 0
-63 22 0
-38 -64 0
-41 -64 0
42 -64 0
-55 -64 0
-61 -64 0
64 38 41 -42 55 61 0
-64 22 0
-22 23 24 20 21 16 17 18 19 65 66 25 26 63 64 0
41 -77 0
-50 -77 0
-55 -77 0
77 -41 50 55 0
-77 75 0
41 -68 0
42 -68 0
50 -68 0
55 -68 0
68 -41 -42 -50 -55 0
-68 75 0
-41 -67 0
42 -67 0
-50 -67 0
55 -67 0
67 41 -42 50 -55 0
-67 75 0
-41 -69 0
-42 -69 0
50 -69 0
-55 -69 0
69 41 42 -50 55 0
-69 75 0
41 -74 0
50 -74 0
55 -74 0
61 -74 0
74 -41 -50 -55 -61 0
-74 75 0
-41 -73 0
-50 -73 0
55 -73 0
61 -73 0
73 41 50 -55 -61 0
-73 75 0
41 -72 0
42 -72 0
-55 -72 0
61 -72 0
72 -41 -42 55 -61 0
-72 75 0
-41 -71 0
-42 -71 0
50 -71 0
-61 -71 0
71 41 42 -50 61 0
-71 75 0
41 -70 0
-42 -70 0
-50 -70 0
-61 -70 0
70 -41 42 50 61 0
-70 75 0
-41 -76 0
50 -76 0
-55 -76 0
-61 -76 0
76 41 -50 55 61 0
-76 75 0
-75 77 68 67 69 74 73 72 71 70 76 0
42 -80 0
-50 -80 0
-55 -80 0
80 -42 50 55 0
-80 83 0
42 -82 0
55 -82 0
61 -82 0
82 -42 -55 -61 0
-82 83 0
-42 -81 0
55 -81 0
-61 -81 0
81 42 -55 61 0
-81 83 0
42 -79 0
-55 -79 0
-61 -79 0
79 -42 55 61 0
-79 83 0
-42 -78 0
50 -78 0
-55 -78 0
61 -78 0
78 42 -50 55 -61 0
-78 83 0
-83 80 82 81 79 78 0
50 -85 0
55 -85 0
85 -50 -55 0
-85 87 0
50 -86 0
-61 -86 0
86 -50 61 0
-86 87 0
-50 -84 0
-55 -84 0
61 -84 0
84 50 55 -61 0
-84 87 0
-87 85 86 84 0
-55 -88 0
61 -88 0
88 55 -61 0
-88 102 0
55 -89 0
-61 -89 0
89 -55 61 0
-89 102 0
-102 88 89 0
-61 -105 0
105 61 0
-105 106 0
-106 105 0
